
List of user-set options:

                                    Name   Value                used
                           linear_solver = ma57                  yes
                  ma57_automatic_scaling = yes                   yes
                                max_iter = 200                   yes
                             mu_strategy = adaptive              yes
                             output_file = SLIP_constV1_fixedTIPOPTinfo.txt  yes
                             print_level = 5                     yes
                      print_user_options = yes                   yes
                                     tol = 1e-010                yes
This is Ipopt version 3.11.0, running with linear solver ma57.

Number of nonzeros in equality constraint Jacobian...:   772135
Number of nonzeros in inequality constraint Jacobian.:       26
Number of nonzeros in Lagrangian Hessian.............:   178250

Total number of variables............................:    56082
                     variables with only lower bounds:        0
                variables with lower and upper bounds:    56082
                     variables with only upper bounds:        0
Total number of equality constraints.................:    52082
Total number of inequality constraints...............:       17
        inequality constraints with only lower bounds:        0
   inequality constraints with lower and upper bounds:       17
        inequality constraints with only upper bounds:        0

iter    objective    inf_pr   inf_du lg(mu)  ||d||  lg(rg) alpha_du alpha_pr  ls
   0 0.0000000e+000 2.52e+001 3.55e-003   0.0 0.00e+000    -  0.00e+000 0.00e+000   0
   1 -1.3473276e-001 1.91e+001 8.80e+002  -0.2 1.36e+000    -  7.10e-001 2.44e-001f  1
   2 -1.0563846e-001 1.73e+001 8.31e+002  -0.5 2.23e+000    -  2.43e-001 9.33e-002h  1
   3 4.1400211e-002 1.19e+001 1.17e+003  -0.2 2.26e+000    -  4.29e-001 3.11e-001h  1
   4 4.5599416e-001 5.40e+000 9.03e+002  -0.3 7.62e-001    -  9.90e-001 5.47e-001h  1
   5 8.8814906e-001 6.39e-001 1.32e+003  -0.2 7.82e-001    -  4.31e-001 8.82e-001h  1
   6 8.8884804e-001 6.23e-001 1.62e+003  -0.3 5.45e-001    -  8.85e-001 2.44e-002h  1
   7 8.8785308e-001 6.02e-001 2.74e+004   0.8 2.57e+001    -  1.00e+000 3.41e-002f  1
   8 8.9684125e-001 4.83e-001 1.08e+005   1.4 1.03e+000    -  9.87e-001 1.97e-001h  1
   9 8.9849243e-001 4.46e-001 8.11e+005   2.2 1.04e+001    -  1.00e+000 7.59e-002h  1
iter    objective    inf_pr   inf_du lg(mu)  ||d||  lg(rg) alpha_du alpha_pr  ls
  10 9.5504416e-001 4.46e-003 4.21e+005   2.5 2.99e-001    -  1.00e+000 9.90e-001h  1
  11 9.5472184e-001 4.41e-005 1.09e+005   1.3 2.64e-002    -  1.00e+000 9.90e-001h  1
  12 9.5695261e-001 2.21e-005 2.46e+007   0.2 1.06e-002    -  1.00e+000 5.00e-001f  2
  13 9.5693729e-001 2.97e-010 2.06e+001  -1.5 9.05e-005   4.0 1.00e+000 1.00e+000h  1
  14 9.5624254e-001 6.96e-008 3.89e+005  -3.6 2.19e-003    -  9.87e-001 1.00e+000f  1
  15 9.1853329e-001 1.46e-004 1.98e+003  -3.8 8.93e-002    -  9.95e-001 1.00e+000f  1
  16 7.5642060e-001 2.53e-003 1.29e-001  -4.2 2.24e-001    -  1.00e+000 1.00e+000h  1
  17 6.0274077e-001 3.91e-003 2.76e+000  -4.3 5.84e-001    -  9.96e-001 1.00e+000h  1
  18 5.4113976e-001 1.06e-003 3.29e-002  -4.5 2.62e-001    -  1.00e+000 1.00e+000h  1
  19 4.8987363e-001 1.12e-003 8.59e+002  -4.9 3.90e-001    -  9.99e-001 6.00e-001h  1
iter    objective    inf_pr   inf_du lg(mu)  ||d||  lg(rg) alpha_du alpha_pr  ls
  20 4.4641511e-001 1.09e-003 2.47e-002  -4.9 3.37e-001    -  1.00e+000 1.00e+000h  1
  21 4.3863282e-001 6.00e-004 1.47e+002  -5.1 1.06e+000    -  1.00e+000 4.89e-001h  1
  22 4.2755110e-001 3.70e-004 1.62e+002  -5.2 1.52e+000    -  1.00e+000 5.10e-001h  1
  23 4.0950279e-001 3.07e-004 6.96e+001  -5.3 5.56e-001    -  1.00e+000 7.85e-001h  1
  24 3.9692275e-001 1.64e-004 2.33e+001  -5.4 5.31e-001    -  1.00e+000 8.57e-001h  1
  25 3.8685687e-001 1.29e-004 4.42e+001  -5.5 6.92e-001    -  1.00e+000 7.09e-001h  1
  26 3.8025516e-001 9.86e-005 6.00e+001  -5.7 9.36e-001    -  1.00e+000 5.31e-001h  1
  27 3.7497650e-001 8.04e-005 6.36e+001  -5.8 1.38e+000    -  1.00e+000 4.58e-001h  1
  28 3.7057119e-001 6.19e-005 4.42e+001  -5.9 1.07e+000    -  1.00e+000 4.91e-001h  1
  29 3.6731266e-001 4.40e-005 3.15e+001  -6.0 1.07e+000    -  1.00e+000 4.88e-001h  1
iter    objective    inf_pr   inf_du lg(mu)  ||d||  lg(rg) alpha_du alpha_pr  ls
  30 3.6434218e-001 2.89e-005 1.78e+001  -6.0 8.37e-001    -  1.00e+000 5.94e-001h  1
  31 3.6192073e-001 1.89e-005 8.93e+000  -6.1 8.48e-001    -  1.00e+000 6.90e-001h  1
  32 3.6022486e-001 1.22e-005 4.25e+000  -6.1 6.25e-001    -  1.00e+000 7.55e-001h  1
  33 3.5900704e-001 1.09e-005 7.19e+000  -6.2 7.84e-001    -  1.00e+000 5.72e-001h  1
  34 3.5800890e-001 1.11e-005 1.05e+001  -6.3 1.28e+000    -  1.00e+000 4.34e-001h  1
  35 3.5694896e-001 9.39e-006 5.81e+000  -6.3 7.91e-001    -  1.00e+000 5.97e-001h  1
  36 3.5611458e-001 1.01e-005 6.84e+000  -6.4 1.25e+000    -  1.00e+000 4.85e-001h  1
  37 3.5537111e-001 8.78e-006 5.44e+000  -6.5 1.13e+000    -  1.00e+000 5.17e-001h  1
  38 3.5453351e-001 7.18e-006 1.87e+000  -6.5 6.19e-001    -  1.00e+000 7.73e-001h  1
  39 3.5395538e-001 7.46e-006 2.88e+000  -6.6 1.03e+000    -  1.00e+000 5.95e-001h  1
iter    objective    inf_pr   inf_du lg(mu)  ||d||  lg(rg) alpha_du alpha_pr  ls
  40 3.5358731e-001 5.02e-006 3.53e+000  -6.7 1.18e+000    -  1.00e+000 4.44e-001h  1
  41 3.5318631e-001 4.54e-006 3.29e+000  -6.7 1.00e+000    -  1.00e+000 4.89e-001h  1
  42 3.5276916e-001 3.89e-006 2.46e+000  -6.8 6.65e-001    -  1.00e+000 5.66e-001h  1
  43 3.5239303e-001 4.57e-006 2.76e+000  -6.9 1.11e+000    -  1.00e+000 5.09e-001h  1
  44 3.5207162e-001 3.27e-006 1.32e+000  -6.9 6.29e-001    -  1.00e+000 6.47e-001h  1
  45 3.5181927e-001 3.43e-006 3.41e+000  -7.1 1.45e+000    -  1.00e+000 3.59e-001h  1
  46 3.5149275e-001 4.64e-006 5.11e+000  -7.4 2.22e+000    -  1.00e+000 3.46e-001h  1
  47 3.5134789e-001 8.83e-007 1.79e-003  -7.1 3.40e-001    -  1.00e+000 1.00e+000h  1
  48 3.5107588e-001 2.85e-006 9.29e-001  -7.2 7.92e-001    -  1.00e+000 6.73e-001h  1
  49 3.5096238e-001 5.11e-007 1.10e-001  -7.2 2.79e-001    -  7.60e-001 1.00e+000h  1
iter    objective    inf_pr   inf_du lg(mu)  ||d||  lg(rg) alpha_du alpha_pr  ls
  50 3.5077081e-001 2.04e-006 2.41e+000  -7.7 1.45e+000    -  1.00e+000 3.66e-001h  1
  51 3.5072295e-001 1.35e-007 8.38e-004  -7.4 2.09e-001    -  1.00e+000 1.00e+000h  1
  52 3.5057722e-001 6.99e-007 5.36e-003  -7.5 3.11e-001    -  1.00e+000 1.00e+000h  1
  53 3.5049055e-001 7.12e-007 1.03e+000  -7.9 6.40e-001    -  1.00e+000 4.00e-001h  1
  54 3.5039699e-001 6.76e-007 1.05e+000  -8.5 1.19e+000    -  1.00e+000 4.81e-001h  1
  55 3.5033125e-001 2.47e-007 3.67e-001  -8.5 5.43e-001    -  1.00e+000 6.89e-001h  1
  56 3.5037294e-001 1.77e-007 3.69e-003  -8.0 4.06e-001    -  1.00e+000 1.00e+000h  1
  57 3.5031754e-001 1.35e-007 2.16e-003  -8.4 2.02e-001    -  1.00e+000 1.00e+000h  1
  58 3.5028994e-001 6.89e-008 7.44e-004  -9.2 2.21e-001    -  1.00e+000 1.00e+000h  1
  59 3.5028718e-001 1.52e-008 2.47e-002  -9.9 3.23e-001    -  1.00e+000 8.06e-001h  1
iter    objective    inf_pr   inf_du lg(mu)  ||d||  lg(rg) alpha_du alpha_pr  ls
  60 3.5028576e-001 1.34e-009 3.09e-003 -10.7 9.30e-002    -  1.00e+000 9.32e-001h  1
  61 3.5028574e-001 1.09e-009 7.38e-003 -11.0 1.58e-002    -  1.00e+000 1.86e-001h  1
  62 3.5028566e-001 2.98e-010 2.80e-002 -11.0 1.28e-002    -  1.00e+000 7.29e-001h  1
  63 3.5028564e-001 2.22e-011 4.53e-003 -11.0 3.48e-003    -  1.00e+000 9.27e-001f  1
Reallocating memory for MA57: lfact (5735239)
  64 3.5028564e-001 1.66e-011 4.14e-003 -11.0 2.53e-004    -  1.00e+000 2.50e-001f  3
  65 3.5028564e-001 1.27e-014 1.65e-011 -11.0 1.90e-004    -  1.00e+000 1.00e+000h  1

Number of Iterations....: 65

                                   (scaled)                 (unscaled)
Objective...............:  3.5028564085539904e-001   3.5028564085539904e-001
Dual infeasibility......:  1.6457076697595289e-011   1.6457076697595289e-011
Constraint violation....:  1.2654374076381814e-014   1.2654374076381814e-014
Complementarity.........:  1.4978518270399736e-011   1.4978518270399736e-011
Overall NLP error.......:  1.6457076697595289e-011   1.6457076697595289e-011


Number of objective function evaluations             = 69
Number of objective gradient evaluations             = 66
Number of equality constraint evaluations            = 69
Number of inequality constraint evaluations          = 69
Number of equality constraint Jacobian evaluations   = 66
Number of inequality constraint Jacobian evaluations = 66
Number of Lagrangian Hessian evaluations             = 65
Total CPU secs in IPOPT (w/o function evaluations)   =     23.625
Total CPU secs in NLP function evaluations           =    111.309

EXIT: Optimal Solution Found.
